c ---- [ banner ] ------------------------------------------------------------
c
c Kissat SAT Solver
c 
c Copyright (c) 2021-2023 Armin Biere University of Freiburg
c Copyright (c) 2019-2021 Armin Biere Johannes Kepler University Linz
c 
c Version 3.1.1 unknown
c gcc (Ubuntu 9.4.0-1ubuntu1~20.04.2) 9.4.0 -W -Wall -O3 -DNDEBUG
c Mon Feb 26 18:18:52 CET 2024 Linux OptiPlex-7080 5.15.0-88-generic x86_64
c
c ---- [ parsing ] -----------------------------------------------------------
c
c opened and reading DIMACS file:
c
c   /home/oliveras/SAT-comp-2023//92387c29e87aa857e84feb301f3d6aff-rbsat-v760c43649gyes5.cnf
c
c parsed 'p cnf 760 43649' header
c closing input after reading 514262 bytes (502 KB)
c finished parsing after 0.01 seconds
c
c ---- [ options ] -----------------------------------------------------------
c
c --seed=1                         (different from default '0')
c
c ---- [ solving ] -----------------------------------------------------------
c
c  seconds switched conflicts  irredundant variables
c         MB reductions redundant    trail   remaining
c          level restarts    binary     glue
c
c *  0.01  3 0 0 0  0   0   0 43609 40 0% 0 760 100%
c {  0.01  3 0 0 0  0   0   0 43609 40 0% 0 760 100%
c -  0.04  3 25 0 1 71 1001 850 43612 40 81% 5 760 100%
c }  0.04  3 25 1 1 71 1001 850 43612 40 81% 5 760 100%
c [  0.04  3 0 1 1 71 1001 850 43612 40 0% 0 760 100%
c B  0.04  3 0 1 1 71 1001 850 43612 40 0% 0 760 100%
c -  0.06  3 56 1 2 71 2002 1412 43612 40 80% 8 760 100%
c W  0.06  3 56 1 2 71 2002 1412 43612 40 80% 8 760 100%
c ]  0.06  3 56 2 2 72 2029 1438 43612 40 80% 8 760 100%
c {  0.06  3 25 2 2 72 2029 1438 43612 40 81% 5 760 100%
c u  0.07  3 23 2 2 88 2153 1560 43614 40 81% 5 760 100%
c v  0.09  3 23 2 2 88 2153 1558 43616 40 81% 5 760 100%
c t  0.09  3 23 2 2 88 2153 1558 43540 40 81% 5 760 100%
c }  0.11  3 17 3 2 104 3029 2434 43540 40 83% 5 760 100%
c [  0.11  3 56 3 2 104 3029 2434 43540 40 80% 8 760 100%
c -  0.12  3 46 3 3 104 3417 1886 43540 40 80% 8 760 100%
c ]  0.13  3 38 4 3 104 3941 2409 43540 40 80% 8 760 100%
c {  0.13  3 17 4 3 104 3941 2409 43540 40 83% 5 760 100%
c u  0.14  3 16 4 3 128 4307 2768 43546 40 83% 5 760 100%
c v  0.15  3 16 4 3 128 4307 2766 43548 40 83% 5 760 100%
c
c  seconds  switched conflicts     irredundant variables
c         MB reductions   redundant       trail   remaining
c          level restarts        binary      glue
c
c t  0.16  3 16 4 3 128 4307 2766 43464 40 83% 5 760 100%
c -  0.18  3 16 4 4 175 5149 2716 43464 40 82% 5 760 100%
c }  0.20  4 18 5 4 284 6293 3858 43466 40 82% 5 760 100%
c [  0.20  4 38 5 4 284 6293 3858 43466 40 80% 8 760 100%
c I  0.20  4 38 5 4 284 6293 3858 43466 40 80% 8 760 100%
c -  0.22  4 52 5 5 284 7151 3255 43466 40 79% 9 760 100%
c ]  0.25  4 44 6 5 286 8402 4502 43466 40 79% 10 760 100%
c {  0.25  4 18 6 5 286 8402 4502 43466 40 82% 5 760 100%
c u  0.27  4 21 6 5 340 8782 4878 43468 40 82% 5 760 100%
c v  0.29  4 21 6 5 340 8782 4878 43468 40 82% 5 760 100%
c t  0.29  4 21 6 5 340 8782 4878 43416 40 82% 5 760 100%
c -  0.31  4 27 6 6 434 9387 3534 43418 40 81% 6 760 100%
c 2  0.35  4 37 6 6 669 10765 4899 41044 40 81% 6 760 100%
c e  0.41  5 37 6 6 669 10765 4899 36890 3434 81% 6 720 95%
c ^  0.46  5 37 6 6 669 10765 4899 36890 3434 81% 6 720 95%
c -  0.56  4 44 6 7 1068 11836 2465 36890 3434 79% 8 720 95%
c }  0.60  5 48 7 7 1248 12471 3083 36890 3434 79% 9 720 95%
c [  0.60  5 44 7 7 1248 12471 3083 36890 3434 79% 10 720 95%
c B  0.60  5 44 7 7 1248 12471 3083 36890 3434 79% 10 720 95%
c -  0.67  5 36 7 8 1249 14481 3131 36890 3434 79% 10 720 95%
c
c  seconds  switched   conflicts      irredundant  variables
c         MB reductions     redundant         trail    remaining
c          level  restarts         binary         glue
c
c u  0.72  5 36 7 8 1250 15730 4369 36892 3434 79% 11 720 95%
c v  0.72  5 36 7 8 1250 15730 4369 36892 3434 79% 11 720 95%
c w  0.73  5 36 7 8 1250 15730 4369 36892 3434 79% 11 720 95%
c -  0.81  5 33 7 9 1251 17309 3489 36892 3434 79% 11 720 95%
c W  0.83  5 32 7 9 1252 18001 4176 36892 3434 79% 11 720 95%
c ]  0.84  5 31 8 9 1252 18467 4640 36892 3434 80% 11 720 95%
c {  0.84  5 48 8 9 1252 18467 4640 36892 3434 79% 9 720 95%
c -  0.90  5 42 8 10 1278 20311 4142 36893 3434 79% 9 720 95%
c 2  0.93  5 39 8 10 1297 21372 5196 36893 3434 79% 8 720 95%
c ^  1.00  5 39 8 10 1297 21372 5196 36893 3434 79% 8 720 95%
c -  1.07  5 36 8 11 1336 23473 5211 36894 3434 80% 8 720 95%
c }  1.10  5 34 9 11 1350 24626 6351 36898 3434 80% 8 720 95%
c [  1.10  5 31 9 11 1350 24626 6351 36898 3434 80% 11 720 95%
c u  1.13  5 30 9 11 1350 25171 6876 36914 3434 80% 11 720 95%
c v  1.14  5 30 9 11 1350 25171 6876 36914 3434 80% 11 720 95%
c w  1.15  5 30 9 11 1350 25171 6878 36914 3432 80% 11 720 95%
c O  1.19  5 30 9 11 1350 25529 7235 36914 3432 80% 11 720 95%
c -  1.23  5 29 9 12 1352 26792 5545 36914 3432 80% 11 720 95%
c ]  1.33  5 27 10 12 1354 30118 8851 36914 3432 80% 10 720 95%
c {  1.33  6 34 10 12 1354 30118 8851 36914 3432 80% 8 720 95%
c
c  seconds   switched    conflicts      irredundant variables
c         MB   reductions     redundant         trail   remaining
c          level    restarts         binary        glue
c
c -  1.34  6 34 10 13 1359 30256 5417 36914 3432 80% 8 720 95%
c -  1.44  6 30 10 14 1437 33862 6009 36915 3432 80% 8 720 95%
c u  1.55  6 28 10 14 1516 37326 9446 36916 3432 81% 8 720 95%
c v  1.56  6 28 10 14 1516 37326 9445 36917 3432 81% 8 720 95%
c w  1.57  6 28 10 14 1516 37326 9453 36917 3424 81% 8 720 95%
c -  1.61  5 28 10 15 1524 37606 6933 36917 3424 81% 8 720 95%
c }  1.64  5 27 11 15 1546 38745 8062 36917 3424 81% 8 720 95%
c [  1.64  5 27 11 15 1546 38745 8062 36917 3424 80% 10 720 95%
c B  1.64  5 27 11 15 1546 38745 8062 36917 3424 80% 10 720 95%
c -  1.73  6 26 11 16 1548 41478 7085 36917 3424 80% 10 720 95%
c 2  1.83  6 26 11 16 1550 44366 9960 36901 3424 80% 11 720 95%
c ^  1.90  6 26 11 16 1550 44366 9960 36901 3424 80% 11 720 95%
c -  1.94  6 26 11 17 1551 45478 6480 36901 3424 80% 11 720 95%
c ]  1.95  6 26 12 17 1551 45743 6745 36901 3424 80% 11 720 95%
c {  1.95  6 27 12 17 1551 45743 6745 36901 3424 81% 8 720 95%
c -  2.08  6 25 12 18 1744 49602 6842 36902 3424 81% 8 720 95%
c u  2.18  6 24 12 18 1822 52284 9500 36909 3424 81% 8 720 95%
c v  2.20  6 24 12 18 1822 52284 9500 36909 3424 81% 8 720 95%
c w  2.21  6 24 12 18 1822 52284 9507 36909 3417 81% 8 720 95%
c -  2.29  7 23 12 19 1874 53846 7908 36909 3417 81% 8 720 95%
c
c  seconds   switched    conflicts       irredundant variables
c         MB   reductions      redundant         trail   remaining
c          level    restarts          binary        glue
c
c }  2.40  7 23 13 19 2058 57223 11270 36909 3417 81% 8 720 95%
c [  2.40  7 26 13 19 2058 57223 11270 36909 3417 80% 11 720 95%
c W  2.41  7 26 13 19 2058 57223 11270 36909 3417 80% 11 720 95%
c -  2.44  7 27 13 20 2058 58204 8312 36909 3417 80% 11 720 95%
c -  2.61  7 25 13 21 2062 62677 8174 36910 3417 81% 11 720 95%
c ]  2.76  7 25 14 21 2064 66902 12380 36911 3417 81% 11 720 95%
c {  2.76  7 23 14 21 2064 66902 12380 36911 3417 81% 8 720 95%
c -  2.78  7 23 14 22 2090 67260 7694 36911 3417 81% 8 720 95%
c u  2.89  7 22 14 22 2243 70145 10557 36914 3417 81% 8 720 95%
c v  2.91  7 22 14 22 2243 70145 10546 36925 3417 81% 8 720 95%
c w  2.92  8 22 14 22 2243 70145 10553 36925 3410 81% 8 720 95%
c -  3.02  8 22 14 23 2298 71950 8606 36925 3410 82% 8 720 95%
c -  3.18  7 21 14 24 2542 76746 9721 36928 3410 82% 8 720 95%
c 2  3.34  7 20 14 24 2661 81403 14355 36913 3410 82% 8 720 95%
c ^  3.40  7 20 14 24 2661 81403 14355 36913 3410 82% 8 720 95%
c }  3.41  7 20 15 24 2661 81618 14570 36913 3410 82% 8 720 95%
c [  3.41  7 25 15 24 2661 81618 14570 36913 3410 81% 11 720 95%
c I  3.41  7 25 15 24 2661 81618 14570 36913 3410 81% 11 720 95%
c -  3.41  7 25 15 25 2661 81645 10410 36913 3410 81% 11 720 95%
c -  3.65  8 30 15 26 2664 86645 9045 36913 3410 81% 14 720 95%
c
c  seconds   switched    conflicts       irredundant  variables
c         MB   reductions      redundant         trail    remaining
c          level    restarts          binary         glue
c
c u  3.88  8 31 15 26 2667 91018 13399 36914 3410 81% 15 720 95%
c v  3.90  8 31 15 26 2667 91018 13380 36933 3410 81% 15 720 95%
c w  3.92  8 31 15 26 2667 91018 13380 36933 3410 81% 15 720 95%
c -  4.00  7 32 15 27 2667 91744 7230 36933 3410 81% 15 720 95%
c ]  4.04  7 32 16 27 2667 92778 8258 36934 3410 81% 15 720 95%
c {  4.04  7 20 16 27 2667 92778 8258 36934 3410 82% 8 720 95%
c -  4.19  7 20 16 28 2888 96941 8475 36935 3410 82% 8 720 95%
c -  4.38  7 19 16 29 3216 102232 10609 36937 3410 82% 7 720 95%
c -  4.57  7 19 16 30 3505 107619 11763 36939 3410 82% 7 720 95%
c }  4.70  8 19 17 30 3721 111115 15254 36939 3410 82% 8 720 95%
c [  4.70  8 32 17 30 3721 111115 15254 36939 3410 81% 15 720 95%
c B  4.70  8 32 17 30 3721 111115 15254 36939 3410 81% 15 720 95%
c -  4.78  8 32 17 31 3722 113096 11508 36939 3410 81% 15 720 95%
c u  4.87  7 32 17 31 3723 114968 13370 36940 3410 81% 15 720 95%
c v  4.90  8 32 17 31 3723 114968 13357 36953 3410 81% 15 720 95%
c w  4.91  8 32 17 31 3723 114968 13373 36953 3394 81% 15 720 95%
c -  5.11  8 30 17 32 3726 118664 10475 36954 3394 81% 15 720 95%
c -  5.36  8 29 17 33 3728 124320 10050 36955 3394 81% 14 720 95%
c ]  5.43  8 29 18 33 3730 126312 12039 36955 3394 81% 14 720 95%
c {  5.43  8 19 18 33 3730 126312 12039 36955 3394 82% 8 720 95%
c
c  seconds   switched    conflicts        irredundant variables
c         MB   reductions       redundant         trail   remaining
c          level    restarts           binary        glue
c
c -  5.57  8 18 18 34 3731 130064 11917 36957 3394 82% 7 720 95%
c 2  5.71  7 17 18 34 3731 134030 15869 36929 3394 82% 7 720 95%
c ^  5.76  8 17 18 34 3731 134030 15869 36929 3394 82% 7 720 95%
c -  5.83  8 16 18 35 3731 135895 15111 36930 3394 83% 7 720 95%
c -  6.04  8 16 18 36 3732 141811 16873 36933 3394 83% 7 720 95%
c u  6.07  8 15 18 36 3732 142080 17127 36948 3394 83% 7 720 95%
c v  6.10  8 15 18 36 3732 142080 15393 38682 3394 83% 7 720 95%
c w  6.13  9 15 18 36 3732 142080 15402 38682 3385 83% 7 720 95%
c t  6.18  9 15 18 36 3732 142080 15402 38676 3385 83% 7 720 95%
c -  6.39  8 15 18 37 3732 147811 16519 38676 3385 83% 7 720 95%
c }  6.42  8 15 19 37 3732 148657 17364 38676 3385 83% 7 720 95%
c [  6.42  8 29 19 37 3732 148657 17364 38676 3385 81% 14 720 95%
c W  6.42  8 29 19 37 3732 148657 17364 38676 3385 81% 14 720 95%
c -  6.64  9 28 19 38 3736 153893 14857 38677 3385 81% 14 720 95%
c -  6.88  9 27 19 39 3738 160057 12191 38677 3385 82% 14 720 95%
c -  7.14  8 27 19 40 3743 166301 10944 38677 3385 82% 14 720 95%
c ]  7.21  8 27 20 40 3744 167962 12595 38678 3385 82% 14 720 95%
c {  7.21  8 15 20 40 3744 167962 12595 38678 3385 83% 7 720 95%
c -  7.41  9 15 20 41 4282 172626 11984 38679 3385 83% 7 720 95%
c u  7.44  8 15 20 41 4296 172676 11935 38778 3385 83% 7 720 95%
c
c  seconds   switched    conflicts        irredundant variables
c         MB   reductions       redundant         trail   remaining
c          level    restarts           binary        glue
c
c v  7.47  8 15 20 41 4296 172676 11418 39295 3385 83% 7 720 95%
c w  7.49  8 15 20 41 4296 172676 11423 39295 3380 83% 7 720 95%
c t  7.54  8 15 20 41 4296 172676 11423 37809 3380 83% 7 720 95%
c -  7.79  8 15 20 42 4930 179030 13771 37810 3380 83% 7 720 95%
c -  8.06  8 15 20 43 5587 185511 14945 37811 3380 83% 7 720 95%
c -  8.32  9 15 20 44 6281 192068 15234 37811 3380 83% 7 720 95%
c }  8.42  9 15 21 44 6510 194702 17854 37811 3380 83% 7 720 95%
c [  8.42  9 27 21 44 6510 194702 17854 37811 3380 82% 14 720 95%
c O  8.42  9 27 21 44 6510 194702 17854 37811 3380 82% 14 720 95%
c -  8.57  9 26 21 45 6512 198701 14517 37811 3380 82% 14 720 95%
c 2  8.79  8 27 21 45 6516 203690 19495 36944 3380 82% 14 720 95%
c !  8.84  8 27 21 45 6516 203690 19495 36944 3380 82% 14 720 95%
c -  8.93  9 26 21 46 6516 205409 13004 36944 3380 82% 14 720 95%
c u  9.00  8 26 21 46 6516 206454 14047 36946 3380 82% 14 720 95%
c v  9.03  8 26 21 46 6516 206454 13954 37039 3380 82% 14 720 95%
c w  9.06  8 26 21 46 6516 206454 13962 37039 3372 82% 14 720 95%
c t  9.14  9 26 21 46 6516 206454 13962 37037 3372 82% 14 720 95%
c -  9.38  9 26 21 47 6521 212192 12759 37038 3372 82% 14 720 95%
c -  9.67  9 25 21 48 6523 219047 13071 37038 3372 82% 14 720 95%
c ]  9.71  9 26 22 48 6524 219862 13885 37038 3372 82% 14 720 95%
c
c  seconds   switched    conflicts        irredundant variables
c         MB   reductions       redundant         trail   remaining
c          level    restarts           binary        glue
c
c {  9.71  9 15 22 48 6524 219862 13885 37038 3372 83% 7 720 95%
c - 10.40  9 20 22 49 8055 225975 12050 37039 3372 83% 10 720 95%
c - 11.27  8 26 22 50 9797 232976 11197 37039 3372 82% 13 720 95%
c - 12.14  8 30 22 51 11236 240048 11119 37040 3372 82% 15 720 95%
c u 12.53  9 33 22 51 11914 243485 14501 37082 3372 82% 16 720 95%
c v 12.61  9 33 22 51 11914 243485 14435 37148 3372 82% 16 720 95%
c w 12.68  9 33 22 51 11914 243485 14435 37148 3372 82% 16 720 95%
c t 12.75  9 33 22 51 11914 243485 14435 37078 3372 82% 16 720 95%
c - 13.29  9 35 22 52 12652 247191 11281 37078 3372 82% 18 720 95%
c } 13.72  9 37 23 52 13486 251378 15453 37078 3372 82% 19 720 95%
c [ 13.72  9 26 23 52 13486 251378 15453 37078 3372 82% 14 720 95%
c B 13.72  9 26 23 52 13486 251378 15453 37078 3372 82% 14 720 95%
c - 13.90  9 26 23 53 13488 254403 11807 37078 3372 82% 14 720 95%
c - 14.23  9 25 23 54 13492 261687 12734 37079 3372 82% 14 720 95%
c - 14.61 10 26 23 55 13497 269035 13212 37080 3372 82% 14 720 95%
c - 14.98  9 25 23 56 13500 276451 13591 37080 3372 82% 14 720 95%
c W 15.33 10 28 23 56 13500 282828 19952 37081 3372 82% 15 720 95%
c - 15.39  9 28 23 57 13500 283934 14191 37081 3372 82% 15 720 95%
c u 15.45  8 28 23 57 13500 283941 14163 37116 3372 82% 15 720 95%
c v 15.52  8 28 23 57 13500 283941 12602 38677 3372 82% 15 720 95%
c
c  seconds   switched     conflicts        irredundant  variables
c         MB   reductions        redundant         trail    remaining
c          level    restarts            binary         glue
c
c w 15.57  8 28 23 57 13500 283941 12614 38677 3360 82% 15 720 95%
c t 15.63  8 28 23 57 13500 283941 12614 38618 3360 82% 15 720 95%
c - 15.97  9 27 23 58 13506 291483 13469 38618 3360 82% 14 720 95%
c 2 15.98  8 27 23 58 13506 291700 13686 36961 3360 82% 14 720 95%
c - 16.35  9 26 23 59 13510 299098 14740 36964 3360 82% 14 720 95%
c - 16.77  9 27 23 60 13514 306781 14815 36964 3360 82% 15 720 95%
c - 17.18  8 27 23 61 13515 314526 14434 36964 3360 82% 15 720 95%
c I 17.36  9 27 23 61 13516 318179 18075 36964 3360 82% 15 720 95%
c - 17.56  9 30 23 62 13516 322336 14709 36965 3360 82% 16 720 95%
c u 17.89 10 33 23 62 13516 328183 20530 36973 3360 82% 17 720 95%
c v 17.94 10 33 23 62 13516 328183 20498 37005 3360 82% 17 720 95%
c w 17.99 10 33 23 62 13516 328183 20498 37005 3360 82% 17 720 95%
c t 18.07 10 33 23 62 13516 328183 20498 37001 3360 82% 17 720 95%
c ] 18.15 10 34 24 62 13516 329935 22247 37002 3360 82% 17 720 95%
c { 18.15 10 37 24 62 13516 329935 22247 37002 3360 82% 19 720 95%
c - 18.17  9 37 24 63 13526 330212 14341 37002 3360 82% 19 720 95%
c - 18.51  9 35 24 64 13526 338150 15323 37002 3360 82% 18 720 95%
c - 18.88  9 33 24 65 13526 346150 16395 37003 3360 82% 17 720 95%
c - 19.23 10 31 24 66 13533 354213 17430 37006 3360 82% 16 720 95%
c - 19.57  9 30 24 67 13533 362339 18451 37006 3360 82% 16 720 95%
c
c  seconds   switched     conflicts        irredundant  variables
c         MB   reductions        redundant         trail    remaining
c          level    restarts            binary         glue
c
c } 19.76  9 29 25 67 13533 366613 22719 37007 3360 82% 15 720 95%
c [ 19.76  9 34 25 67 13533 366613 22719 37007 3360 82% 17 720 95%
c B 19.76  9 34 25 67 13533 366613 22719 37007 3360 82% 17 720 95%
c - 19.94 10 34 25 68 13535 370525 17838 37007 3360 82% 17 720 95%
c u 20.21 10 33 25 68 13539 375621 22908 37023 3360 82% 17 720 95%
c v 20.26 10 33 25 68 13539 375621 22859 37072 3360 82% 17 720 95%
c w 20.30 10 33 25 68 13539 375621 22868 37072 3351 82% 17 720 95%
c ] 20.44 10 33 25 68 13539 377254 24499 37072 3351 82% 17 720 95%
c 1 20.44 10 29 25 68 13539 377254 24499 37072 3351 82% 15 720 95%
c
c ---- [ result ] ------------------------------------------------------------
c
s SATISFIABLE
v -1 2 -3 -4 -5 -6 -7 -8 -9 -10 -11 -12 -13 -14 -15 -16 -17 -18 -19 -20 -21 22
v -23 -24 -25 -26 -27 -28 -29 -30 -31 -32 -33 -34 -35 -36 -37 -38 39 -40 -41
v -42 -43 -44 -45 -46 -47 -48 -49 -50 -51 -52 -53 -54 -55 -56 -57 -58 -59 -60
v -61 -62 -63 -64 -65 -66 -67 -68 -69 -70 -71 -72 -73 -74 -75 76 -77 -78 -79
v -80 -81 -82 -83 -84 -85 -86 -87 88 -89 -90 -91 -92 -93 -94 -95 -96 -97 -98
v -99 -100 -101 -102 -103 -104 -105 -106 -107 -108 -109 -110 111 -112 -113
v -114 -115 116 -117 -118 -119 -120 -121 -122 -123 -124 -125 -126 -127 -128
v -129 -130 -131 -132 -133 -134 -135 -136 -137 -138 -139 -140 -141 -142 -143
v -144 -145 -146 -147 -148 -149 150 -151 -152 -153 -154 -155 -156 -157 -158
v -159 160 -161 -162 -163 -164 -165 -166 -167 -168 -169 -170 -171 -172 -173
v -174 -175 -176 -177 -178 179 -180 -181 -182 -183 -184 -185 -186 -187 -188
v -189 -190 -191 -192 -193 -194 -195 -196 -197 -198 199 -200 -201 -202 -203
v -204 -205 -206 -207 -208 -209 -210 211 -212 -213 -214 -215 -216 -217 -218
v -219 -220 -221 -222 -223 -224 -225 -226 -227 -228 -229 -230 -231 -232 -233
v -234 -235 -236 -237 -238 -239 -240 -241 -242 -243 -244 245 -246 -247 -248
v -249 -250 -251 -252 -253 -254 -255 256 -257 -258 -259 -260 -261 -262 -263
v -264 -265 -266 -267 -268 -269 -270 -271 -272 -273 -274 -275 -276 -277 -278
v 279 -280 -281 -282 -283 -284 -285 -286 -287 288 -289 -290 -291 -292 -293
v -294 -295 -296 -297 -298 -299 -300 -301 -302 -303 -304 305 -306 -307 -308
v -309 -310 -311 -312 -313 -314 -315 -316 -317 -318 -319 -320 -321 -322 -323
v -324 -325 326 -327 -328 -329 -330 -331 -332 -333 -334 -335 -336 -337 -338
v -339 -340 -341 -342 -343 -344 -345 -346 -347 -348 -349 -350 -351 -352 -353
v -354 -355 -356 -357 -358 359 -360 -361 -362 -363 364 -365 -366 -367 -368
v -369 -370 -371 -372 -373 -374 -375 -376 -377 -378 -379 -380 -381 382 -383
v -384 -385 -386 -387 -388 -389 -390 -391 -392 -393 -394 -395 -396 -397 -398
v -399 -400 -401 -402 -403 -404 -405 -406 -407 -408 -409 -410 -411 -412 -413
v -414 -415 -416 -417 418 -419 -420 -421 -422 -423 -424 -425 -426 -427 -428
v -429 -430 -431 -432 -433 -434 -435 -436 437 -438 -439 -440 -441 442 -443
v -444 -445 -446 -447 -448 -449 -450 -451 -452 -453 -454 -455 -456 -457 -458
v -459 -460 -461 -462 -463 -464 -465 466 -467 -468 -469 -470 -471 -472 -473
v -474 -475 -476 -477 -478 -479 -480 -481 -482 -483 -484 -485 -486 -487 -488
v 489 -490 -491 -492 -493 -494 -495 -496 497 -498 -499 -500 -501 -502 -503
v -504 -505 -506 -507 -508 -509 -510 -511 -512 -513 -514 -515 -516 -517 -518
v -519 -520 -521 -522 -523 524 -525 -526 -527 -528 -529 -530 -531 -532 -533
v -534 -535 -536 -537 -538 -539 -540 -541 -542 -543 -544 -545 -546 -547 548
v -549 -550 -551 -552 553 -554 -555 -556 -557 -558 -559 -560 -561 -562 -563
v -564 -565 -566 -567 -568 -569 -570 -571 -572 -573 -574 -575 -576 -577 -578
v -579 -580 -581 582 -583 -584 -585 -586 -587 -588 -589 -590 -591 -592 -593
v -594 -595 -596 -597 -598 -599 -600 -601 -602 603 -604 -605 -606 -607 -608
v -609 -610 611 -612 -613 -614 -615 -616 -617 -618 -619 -620 -621 -622 -623
v -624 -625 -626 -627 -628 -629 -630 -631 -632 -633 634 -635 -636 -637 -638
v -639 -640 -641 -642 -643 -644 -645 -646 -647 -648 -649 -650 -651 -652 -653
v -654 -655 -656 -657 -658 -659 -660 -661 662 -663 -664 -665 -666 -667 -668
v -669 -670 -671 -672 -673 -674 -675 676 -677 -678 -679 -680 -681 -682 -683
v -684 -685 -686 -687 -688 -689 -690 -691 -692 693 -694 -695 -696 -697 -698
v -699 -700 -701 -702 -703 -704 -705 -706 -707 -708 -709 -710 -711 -712 -713
v -714 -715 -716 -717 -718 -719 -720 721 -722 -723 -724 -725 -726 -727 -728
v -729 -730 731 -732 -733 -734 -735 -736 -737 -738 -739 -740 -741 -742 -743
v -744 -745 -746 -747 748 -749 -750 -751 -752 -753 -754 -755 -756 -757 -758
v -759 -760 0
c
c ---- [ profiling ] ---------------------------------------------------------
c
c          17.91   87.62 %  search
c           9.46   46.27 %  focused
c           8.45   41.36 %  stable
c           2.52   12.32 %  simplify
c           2.04    9.97 %  probe
c           1.25    6.13 %  vivify
c           0.62    3.02 %  sweep
c           0.45    2.19 %  eliminate
c           0.17    0.85 %  reduce
c           0.13    0.61 %  subsume
c           0.09    0.44 %  substitute
c           0.06    0.28 %  transitive
c           0.03    0.16 %  walking
c           0.02    0.10 %  backbone
c           0.01    0.05 %  parse
c           0.00    0.00 %  warmup
c           0.00    0.00 %  extend
c =============================================
c          20.44  100.00 %  total
c
c ---- [ statistics ] --------------------------------------------------------
c
c chronological:                           13                0 %  conflicts
c conflicts:                           377254            18452.94 per second
c decisions:                          1306273                3.46 per conflict
c eliminated:                              40                5 %  variables
c propagations:                      49143718          2403807    per second
c queue_decisions:                     874575               67 %  decision
c random_decisions:                    160751               12 %  decision
c random_sequences:                       134             2815    interval
c reductions:                              68             5548    interval
c rephased:                                16            23578    interval
c restarts:                             13539               27.86 interval
c score_decisions:                     270947               21 %  decision
c strengthened:                         19304                1 %  checks
c switched:                                25            15090    interval
c vivified:                             10442               26 %  checks
c vivify_checks:                        39676             2334    per vivify
c vivify_units:                             0                0 %  variables
c walk_improved:                            5              100 %  walks
c walks:                                    5            75451    interval
c
c ---- [ resources ] ---------------------------------------------------------
c
c maximum-resident-set-size:         12328960 bytes         12 MB
c process-time:                            20s              20.44 seconds
c
c ---- [ shutting down ] -----------------------------------------------------
c
c exit 10
